\ Model Routes
\ LP format - for model browsing. Use MPS format to capture full model detail.
Maximize
  - 191.7153353028244 R{0,0} + 104.1826552982702 R{0,1}
   + 104.1826552982702 R{0,2} - 249.2301939667805 R{0,3}
   + 222.8649545650627 R{0,4} + 892.5014194710873 R{0,5}
   + 73.69867783108771 R{0,6} + 163.9197735754843 R{0,7}
   + 49.2060287393723 R{0,8} + 163.9197735754843 R{0,9}
   + 163.9197735754843 R{0,10} + 73.69867783108771 R{0,11}
   - 292.0102899807629 R{0,12} + 359.9663736610557 R{0,13}
   + 351.5833382601838 R{0,14} - 256.140831891889 R{1,0}
   + 41.44651618699046 R{1,1} + 468.947430945026 R{1,2}
   + 788.6501778656678 R{1,3} + 27.09053499529458 R{1,4}
   + 15.3699767572493 R{1,5} + 222.1856352707799 R{1,6}
   + 1125.096416074871 R{1,7} + 141.2751811587228 R{1,8}
   + 349.2768081576952 R{1,9} + 886.7355560582841 R{1,10}
   + 512.2304672805755 R{1,11} + 452.5704646763169 R{1,12}
   + 705.4352080196788 R{1,13} + 452.4461701123878 R{1,14}
   + 679.8592483187184 R{2,0} + 679.8592483187184 R{2,1}
   - 278.4443928850388 R{2,2} - 59.13410337035452 R{2,3}
   + 602.7748664658451 R{2,4} + 571.8089177062732 R{2,5}
   + 146.308363822135 R{2,6} + 916.63200653272 R{2,7}
   + 313.4430658022541 R{2,8} - 162.1978545922627 R{2,9}
   - 279.7995079233182 R{2,10} + 1059.406087989395 R{2,11}
   + 255.1448528934409 R{2,12} - 260.2482995389823 R{3,0}
   + 637.8926476026959 R{3,1} + 1005.833610869225 R{3,2}
   + 1366.836328139346 R{3,3} + 1192.819844386685 R{3,4}
   + 940.2346328741708 R{3,5} + 1185.207470634857 R{3,6}
   + 807.6989766175744 R{3,7} + 1187.70993853047 R{3,8}
   + 1080.987669590028 R{3,9} + 959.0538909032662 R{3,10}
   + 975.3039684097484 R{3,11} + 1189.189555116409 R{3,12}
   + 1075.636289651517 R{3,13} - 242.5208875955131 R{4,0}
   + 1066.379443184683 R{4,1} + 1576.196574514046 R{4,2}
   + 2180.691262178947 R{4,3} + 803.0434562553934 R{4,4}
   + 1104.942532556267 R{4,5} + 566.9065468612164 R{4,6}
   + 1823.522528809322 R{4,7} + 348.446049631178 R{4,8}
   + 1345.601723079734 R{4,9} + 643.89616489065 R{4,10}
   + 841.1080725616389 R{4,11} + 1600.37873589961 R{4,12}
   - 231.9775664337766 R{5,0} + 61.59465442386352 R{5,1}
   + 729.4065638506388 R{5,2} - 20.94172251480674 R{5,3}
   + 393.2841931296471 R{5,4} - 20.94172251480674 R{5,5}
   + 939.4252468524783 R{5,6} + 737.3909857914095 R{5,7}
   + 319.9734389201801 R{5,8} + 1231.070943560894 R{5,9}
   + 391.5998922186665 R{5,10} + 312.5323686324529 R{5,11}
   + 795.214876888175 R{5,12} + 708.0499597369301 R{5,13}
   - 231.1436095783099 R{6,0} + 853.1948783245678 R{6,1}
   + 1610.214397941406 R{6,2} + 1512.347428814385 R{6,3}
   + 1266.732869112176 R{6,4} + 2063.795977627066 R{6,5}
   + 474.0967473524349 R{6,6} + 1601.143784414685 R{6,7}
   + 879.8610185752309 R{6,8} + 384.2564177135725 R{6,9}
   + 579.5851611097672 R{6,10} + 1477.062293251597 R{6,11}
   + 708.3337046712506 R{6,12} + 1349.669373402626 R{6,13}
   + 1801.468257014514 R{6,14} + 2087.725642113248 R{6,15}
   + 2164.41324069251 R{6,16} + 1033.385678825088 R{6,17}
   + 2401.116163474075 R{6,18}
Subject To
 R00: R{0,0} <= 1
 R01: R{0,1} <= 1
 R02: R{0,2} <= 1
 R03: R{0,3} <= 1
 R04: R{0,4} <= 1
 R05: R{0,5} <= 1
 R06: R{0,6} <= 1
 R07: R{0,7} <= 1
 R08: R{0,8} <= 1
 R09: R{0,9} <= 1
 R010: R{0,10} <= 1
 R011: R{0,11} <= 1
 R012: R{0,12} <= 1
 R013: R{0,13} <= 1
 R014: R{0,14} <= 1
 R015: R{1,0} <= 1
 R016: R{1,1} <= 1
 R017: R{1,2} <= 1
 R018: R{1,3} <= 1
 R019: R{1,4} <= 1
 R020: R{1,5} <= 1
 R021: R{1,6} <= 1
 R022: R{1,7} <= 1
 R023: R{1,8} <= 1
 R024: R{1,9} <= 1
 R025: R{1,10} <= 1
 R026: R{1,11} <= 1
 R027: R{1,12} <= 1
 R028: R{1,13} <= 1
 R029: R{1,14} <= 1
 R030: R{2,0} <= 1
 R031: R{2,1} <= 1
 R032: R{2,2} <= 1
 R033: R{2,3} <= 1
 R034: R{2,4} <= 1
 R035: R{2,5} <= 1
 R036: R{2,6} <= 1
 R037: R{2,7} <= 1
 R038: R{2,8} <= 1
 R039: R{2,9} <= 1
 R040: R{2,10} <= 1
 R041: R{2,11} <= 1
 R042: R{2,12} <= 1
 R043: R{3,0} <= 1
 R044: R{3,1} <= 1
 R045: R{3,2} <= 1
 R046: R{3,3} <= 1
 R047: R{3,4} <= 1
 R048: R{3,5} <= 1
 R049: R{3,6} <= 1
 R050: R{3,7} <= 1
 R051: R{3,8} <= 1
 R052: R{3,9} <= 1
 R053: R{3,10} <= 1
 R054: R{3,11} <= 1
 R055: R{3,12} <= 1
 R056: R{3,13} <= 1
 R057: R{4,0} <= 1
 R058: R{4,1} <= 1
 R059: R{4,2} <= 1
 R060: R{4,3} <= 1
 R061: R{4,4} <= 1
 R062: R{4,5} <= 1
 R063: R{4,6} <= 1
 R064: R{4,7} <= 1
 R065: R{4,8} <= 1
 R066: R{4,9} <= 1
 R067: R{4,10} <= 1
 R068: R{4,11} <= 1
 R069: R{4,12} <= 1
 R070: R{5,0} <= 1
 R071: R{5,1} <= 1
 R072: R{5,2} <= 1
 R073: R{5,3} <= 1
 R074: R{5,4} <= 1
 R075: R{5,5} <= 1
 R076: R{5,6} <= 1
 R077: R{5,7} <= 1
 R078: R{5,8} <= 1
 R079: R{5,9} <= 1
 R080: R{5,10} <= 1
 R081: R{5,11} <= 1
 R082: R{5,12} <= 1
 R083: R{5,13} <= 1
 R084: R{6,0} <= 1
 R085: R{6,1} <= 1
 R086: R{6,2} <= 1
 R087: R{6,3} <= 1
 R088: R{6,4} <= 1
 R089: R{6,5} <= 1
 R090: R{6,6} <= 1
 R091: R{6,7} <= 1
 R092: R{6,8} <= 1
 R093: R{6,9} <= 1
 R094: R{6,10} <= 1
 R095: R{6,11} <= 1
 R096: R{6,12} <= 1
 R097: R{6,13} <= 1
 R098: R{6,14} <= 1
 R099: R{6,15} <= 1
 R0100: R{6,16} <= 1
 R0101: R{6,17} <= 1
 R0102: R{6,18} <= 1
 R1_0: R{0,0} + R{0,1} + R{0,2} + R{0,3} + R{0,4} + R{0,5} + R{0,6}
   + R{0,7} + R{0,8} + R{0,9} + R{0,10} + R{0,11} + R{0,12} + R{0,13}
   + R{0,14} <= 1
 R1_1: R{1,0} + R{1,1} + R{1,2} + R{1,3} + R{1,4} + R{1,5} + R{1,6}
   + R{1,7} + R{1,8} + R{1,9} + R{1,10} + R{1,11} + R{1,12} + R{1,13}
   + R{1,14} <= 1
 R1_2: R{2,0} + R{2,1} + R{2,2} + R{2,3} + R{2,4} + R{2,5} + R{2,6}
   + R{2,7} + R{2,8} + R{2,9} + R{2,10} + R{2,11} + R{2,12} <= 1
 R1_3: R{3,0} + R{3,1} + R{3,2} + R{3,3} + R{3,4} + R{3,5} + R{3,6}
   + R{3,7} + R{3,8} + R{3,9} + R{3,10} + R{3,11} + R{3,12} + R{3,13} <= 1
 R1_4: R{4,0} + R{4,1} + R{4,2} + R{4,3} + R{4,4} + R{4,5} + R{4,6}
   + R{4,7} + R{4,8} + R{4,9} + R{4,10} + R{4,11} + R{4,12} <= 1
 R1_5: R{5,0} + R{5,1} + R{5,2} + R{5,3} + R{5,4} + R{5,5} + R{5,6}
   + R{5,7} + R{5,8} + R{5,9} + R{5,10} + R{5,11} + R{5,12} + R{5,13} <= 1
 R1_6: R{6,0} + R{6,1} + R{6,2} + R{6,3} + R{6,4} + R{6,5} + R{6,6}
   + R{6,7} + R{6,8} + R{6,9} + R{6,10} + R{6,11} + R{6,12} + R{6,13}
   + R{6,14} + R{6,15} + R{6,16} + R{6,17} + R{6,18} <= 1
 R2_0: <= 0
 R2_1: 10 R{1,14} + 10 R{3,1} + 10 R{3,2} + 10 R{3,3} + 10 R{3,4}
   + 10 R{3,8} + 10 R{3,10} + 10 R{4,3} + 10 R{5,9} + 10 R{5,13}
   + 10 R{6,15} + 10 R{6,16} + 10 R{6,18} <= 10
 R2_2: <= 0
 R2_3: 4 R{1,9} + 4 R{1,12} + 4 R{4,3} + 4 R{5,1} + 4 R{5,2} + 4 R{5,3}
   + 4 R{5,4} + 4 R{5,5} + 4 R{5,6} + 4 R{5,7} + 4 R{5,9} + 4 R{5,12} <= 4
 R2_4: <= 0
 R2_5: 5 R{4,3} + 5 R{5,1} + 5 R{5,2} + 5 R{5,3} + 5 R{5,4} + 5 R{5,5}
   + 5 R{5,8} + 5 R{5,11} <= 5
 R2_6: 10 R{1,1} + 10 R{1,3} + 10 R{1,4} + 10 R{1,5} + 10 R{1,6}
   + 10 R{1,7} + 10 R{1,8} + 10 R{1,9} + 10 R{3,6} + 10 R{5,10} <= 10
 R2_7: 6 R{1,1} + 6 R{1,2} + 6 R{1,3} + 6 R{1,4} + 6 R{1,5} + 6 R{1,9}
   + 6 R{1,10} + 6 R{1,13} <= 6
 R2_8: <= 0
 R2_9: 12 R{4,1} + 12 R{4,2} + 12 R{4,3} + 12 R{4,4} + 12 R{4,5}
   + 12 R{4,6} + 12 R{4,7} + 12 R{4,8} + 12 R{4,9} + 12 R{4,10}
   + 12 R{4,12} + 12 R{6,17} <= 12
 R2_10: 8 R{0,6} + 8 R{0,11} + 8 R{2,10} + 8 R{6,1} + 8 R{6,2} + 8 R{6,4}
   + 8 R{6,15} + 8 R{6,16} <= 8
 R2_11: 15 R{0,14} <= 15
 R2_12: <= 0
 R2_13: <= 0
 R2_14: <= 0
 R2_15: 11 R{0,0} + 11 R{0,1} + 11 R{0,2} + 11 R{0,7} + 11 R{0,9}
   + 11 R{0,10} + 11 R{4,1} + 11 R{4,2} + 11 R{4,4} + 11 R{4,5} + 11 R{4,7}
   <= 11
 R2_16: 5 R{4,11} <= 5
 R2_17: 11 R{6,15} + 11 R{6,16} <= 11
 R2_18: <= 0
 R2_19: 11 R{1,11} + 11 R{1,12} + 11 R{4,1} + 11 R{4,2} + 11 R{4,3}
   + 11 R{4,4} + 11 R{4,5} + 11 R{4,7} + 11 R{4,12} + 11 R{5,12}
   + 11 R{6,5} <= 11
 R2_20: <= 13
 R2_21: <= 0
 R2_22: <= 0
 R2_23: <= 14
 R2_24: 10 R{1,6} + 10 R{1,14} + 10 R{3,1} + 10 R{3,2} + 10 R{3,3}
   + 10 R{3,5} + 10 R{3,6} + 10 R{3,7} + 10 R{3,9} + 10 R{3,10}
   + 10 R{3,13} + 10 R{5,13} <= 10
 R2_25: 13 R{4,1} + 13 R{4,2} + 13 R{4,3} + 13 R{4,4} + 13 R{4,5}
   + 13 R{4,6} + 13 R{4,7} + 13 R{4,8} + 13 R{4,9} + 13 R{4,11}
   + 13 R{4,12} + 13 R{6,18} <= 13
 R2_26: 6 R{5,1} + 6 R{5,2} + 6 R{5,3} + 6 R{5,4} + 6 R{5,5} + 6 R{5,6}
   + 6 R{5,8} + 6 R{5,10} + 6 R{5,11} + 6 R{5,12} + 6 R{6,18} <= 6
 R2_27: 5 R{1,7} + 5 R{2,6} + 5 R{2,7} + 5 R{3,6} + 5 R{3,9} + 5 R{3,13}
   + 5 R{5,9} + 5 R{5,13} + 5 R{6,1} + 5 R{6,2} + 5 R{6,3} + 5 R{6,4}
   + 5 R{6,5} + 5 R{6,6} + 5 R{6,7} + 5 R{6,8} + 5 R{6,9} + 5 R{6,10}
   + 5 R{6,11} + 5 R{6,12} + 5 R{6,13} + 5 R{6,14} + 5 R{6,15} + 5 R{6,16}
   + 5 R{6,17} + 5 R{6,18} <= 5
 R2_28: <= 0
 R2_29: <= 0
 R2_30: <= 0
 R2_31: <= 0
 R2_32: 7 R{0,4} + 7 R{0,5} + 7 R{3,6} + 7 R{5,4} + 7 R{5,6} + 7 R{5,7}
   + 7 R{5,8} + 7 R{5,10} + 7 R{5,12} <= 7
 R2_33: 12 R{1,11} + 12 R{1,13} <= 12
 R2_34: 5 R{3,12} + 5 R{6,18} <= 5
 R2_35: <= 0
 R2_36: <= 0
 R2_37: 5 R{3,1} + 5 R{3,2} + 5 R{3,3} + 5 R{3,5} + 5 R{3,10} + 5 R{5,4}
   + 5 R{5,8} <= 5
 R2_38: <= 0
 R2_39: <= 0
 R2_40: 15 R{2,3} + 15 R{2,4} + 15 R{2,5} <= 15
 R2_41: 5 R{1,10} + 5 R{2,11} + 5 R{3,2} + 5 R{3,3} + 5 R{3,4} + 5 R{3,6}
   + 5 R{3,8} + 5 R{3,12} + 5 R{4,3} + 5 R{4,10} + 5 R{6,4} + 5 R{6,10}
   + 5 R{6,12} <= 5
 R2_42: 4 R{2,3} + 4 R{2,4} + 4 R{2,5} + 4 R{2,6} + 4 R{2,7} <= 4
 R2_43: <= 0
 R2_44: <= 0
 R2_45: <= 0
 R2_46: 9 R{0,14} + 9 R{2,11} + 9 R{4,11} <= 9
 R2_47: 7 R{5,1} + 7 R{5,2} + 7 R{5,6} + 7 R{5,7} + 7 R{5,11} <= 7
 R2_48: 4 R{4,1} + 4 R{4,2} + 4 R{4,3} + 4 R{4,4} + 4 R{4,5} + 4 R{4,6}
   + 4 R{4,7} + 4 R{4,9} + 4 R{4,12} <= 4
 R2_49: <= 0
 R2_50: <= 0
 R2_51: 11 R{1,11} + 11 R{4,1} + 11 R{4,3} + 11 R{4,5} <= 11
 R2_52: <= 0
 R2_53: 13 R{4,1} + 13 R{4,2} + 13 R{4,3} + 13 R{4,4} + 13 R{4,5}
   + 13 R{4,6} + 13 R{4,8} + 13 R{4,12} <= 13
 R2_54: 9 R{3,1} + 9 R{3,2} + 9 R{3,3} + 9 R{3,4} + 9 R{3,5} + 9 R{3,7}
   + 9 R{3,8} + 9 R{3,10} + 9 R{3,11} + 9 R{3,12} <= 9
 R2_55: 8 R{3,11} + 8 R{6,1} + 8 R{6,2} + 8 R{6,3} + 8 R{6,4} + 8 R{6,5}
   + 8 R{6,7} + 8 R{6,8} + 8 R{6,11} + 8 R{6,13} + 8 R{6,14} + 8 R{6,17}
   <= 8
 R2_56: 6 R{2,0} + 6 R{2,1} + 6 R{4,3} + 6 R{4,10} + 6 R{6,4} + 6 R{6,13}
   + 6 R{6,14} + 6 R{6,17} <= 6
 R2_57: <= 0
 R2_58: <= 0
 R2_59: 10 R{3,10} + 10 R{3,11} + 10 R{4,7} + 10 R{4,9} + 10 R{4,11}
   + 10 R{6,16} <= 10
 R2_60: <= 0
 R2_61: 9 R{2,8} + 9 R{2,11} + 9 R{3,4} + 9 R{3,8} + 9 R{3,11} + 9 R{3,12}
   + 9 R{6,18} <= 9
 R2_62: <= 0
 R2_63: <= 0
 R2_64: <= 0
 R2_65: 5 R{2,0} + 5 R{2,1} + 5 R{2,12} + 5 R{6,1} + 5 R{6,2} + 5 R{6,3}
   + 5 R{6,5} + 5 R{6,7} + 5 R{6,8} + 5 R{6,11} + 5 R{6,13} + 5 R{6,15}
   <= 5
 R2_66: 7 R{1,14} + 7 R{6,1} + 7 R{6,2} + 7 R{6,3} + 7 R{6,4} + 7 R{6,5}
   + 7 R{6,6} + 7 R{6,7} + 7 R{6,8} + 7 R{6,9} + 7 R{6,12} + 7 R{6,13}
   + 7 R{6,14} + 7 R{6,15} + 7 R{6,16} + 7 R{6,17} + 7 R{6,18} <= 7
 R2_67: 3 R{0,1} + 3 R{0,2} + 3 R{0,6} + 3 R{0,7} + 3 R{0,8} + 3 R{0,9}
   + 3 R{0,10} + 3 R{0,11} + 3 R{2,0} + 3 R{2,1} + 3 R{2,8} + 3 R{2,11}
   + 3 R{2,12} <= 3
 R2_68: 6 R{6,1} + 6 R{6,2} + 6 R{6,3} + 6 R{6,4} + 6 R{6,5} + 6 R{6,6}
   + 6 R{6,7} + 6 R{6,8} + 6 R{6,10} + 6 R{6,11} + 6 R{6,13} + 6 R{6,14}
   + 6 R{6,15} + 6 R{6,16} + 6 R{6,17} + 6 R{6,18} <= 6
 R2_69: 7 R{1,8} + 7 R{1,9} + 7 R{1,12} + 7 R{2,9} + 7 R{4,1} + 7 R{4,2}
   + 7 R{4,3} + 7 R{4,4} + 7 R{4,5} + 7 R{4,6} + 7 R{4,7} + 7 R{4,8}
   + 7 R{4,9} + 7 R{4,12} + 7 R{5,12} <= 7
 R2_70: 11 R{1,1} + 11 R{1,2} + 11 R{1,3} + 11 R{1,4} + 11 R{1,10} <= 11
 R2_71: 7 R{3,1} + 7 R{3,2} + 7 R{3,3} + 7 R{3,4} + 7 R{3,8} + 7 R{3,10}
   + 7 R{3,11} + 7 R{3,12} <= 7
 R2_72: <= 0
 R2_73: <= 0
 R2_74: <= 5
 R2_75: 8 R{6,1} + 8 R{6,2} + 8 R{6,3} + 8 R{6,5} + 8 R{6,6} + 8 R{6,7}
   + 8 R{6,8} + 8 R{6,9} + 8 R{6,11} + 8 R{6,13} + 8 R{6,14} + 8 R{6,15}
   + 8 R{6,16} <= 8
 R2_76: 12 R{0,4} + 12 R{0,5} + 12 R{3,3} + 12 R{3,4} + 12 R{3,8}
   + 12 R{3,11} + 12 R{3,12} + 12 R{5,11} <= 12
 R2_77: 7 R{0,5} + 7 R{0,13} + 7 R{1,2} + 7 R{1,3} + 7 R{1,7} + 7 R{1,10}
   + 7 R{1,13} + 7 R{2,4} + 7 R{2,5} + 7 R{2,7} + 7 R{3,5} + 7 R{3,7}
   + 7 R{3,9} + 7 R{3,13} + 7 R{4,2} + 7 R{4,7} + 7 R{4,9} + 7 R{4,12}
   + 7 R{5,2} + 7 R{5,6} + 7 R{5,7} + 7 R{5,9} + 7 R{6,2} + 7 R{6,3}
   + 7 R{6,5} + 7 R{6,7} + 7 R{6,11} + 7 R{6,14} + 7 R{6,15} + 7 R{6,16}
   + 7 R{6,18} <= 7
Bounds
End
